
(set-logic ALL) 

(declare-datatype MyList ((Nil) (Cons (head Real) (tail MyList)) )) 
(declare-fun l0 () MyList) 
(declare-fun l1 () MyList) 
(declare-fun l2 () MyList) 
(declare-fun l3 () MyList) 
(declare-fun i0 () Real) 
(declare-fun i1 () Real) 
(assert (is-Cons l3) )
(assert (= l0 Nil) )
(assert (and (= l3 Nil) (= l2 Nil)) )
(assert (or (is-Nil Nil) (is-Nil l3) (is-Cons Nil) (is-Nil Nil)) )
(assert (not (is-Nil Nil)) )
(assert (or (= l2 l2) (is-Nil l3) (= l1 Nil)) )
(assert (or (= l0 Nil) (= l1 Nil)) )
(assert (or (= l0 Nil) (= l2 Nil) (is-Cons l0)) )
(check-sat)
